(set-logic QF_LIA)
(declare-const x Int)
(declare-const y Int)
(assert (>= (* -3 x) (* y 6)))
(assert (>= (* 30 x) (* y 60)))
(assert (>= (* -2 x) (* -9 y)))
(assert (= (* 300 x) (* y 4)))
(check-sat)
(exit)
